25° run output:
{
    "Function": "kroA300.tsp",
    "Problem dimension": [
        87,
        97,
        113,
        22,
        143,
        183,
        45,
        217,
        89,
        294,
        288,
        138,
        4,
        112,
        90,
        181,
        71,
        85,
        104,
        136,
        149,
        275,
        17,
        204,
        107,
        106,
        210,
        19,
        78,
        6,
        8,
        291,
        64,
        151,
        281,
        255,
        214,
        192,
        279,
        274,
        84,
        144,
        134,
        182,
        108,
        133,
        37,
        208,
        257,
        75,
        293,
        172,
        69,
        209,
        30,
        264,
        117,
        103,
        105,
        116,
        54,
        206,
        284,
        32,
        56,
        296,
        215,
        121,
        9,
        289,
        244,
        142,
        7,
        167,
        223,
        247,
        79,
        12,
        239,
        160,
        20,
        219,
        21,
        29,
        179,
        193,
        287,
        251,
        73,
        245,
        118,
        31,
        26,
        161,
        185,
        145,
        276,
        233,
        147,
        49,
        269,
        132,
        55,
        265,
        175,
        228,
        93,
        256,
        25,
        243,
        252,
        298,
        131,
        166,
        213,
        225,
        271,
        159,
        74,
        61,
        226,
        100,
        234,
        230,
        60,
        198,
        81,
        76,
        140,
        216,
        194,
        201,
        262,
        162,
        23,
        253,
        238,
        267,
        152,
        10,
        86,
        200,
        165,
        196,
        130,
        80,
        77,
        39,
        11,
        148,
        286,
        65,
        47,
        83,
        0,
        282,
        173,
        171,
        50,
        43,
        110,
        66,
        38,
        42,
        72,
        58,
        236,
        102,
        170,
        94,
        260,
        240,
        127,
        197,
        14,
        34,
        184,
        156,
        278,
        53,
        68,
        98,
        248,
        191,
        62,
        15,
        180,
        124,
        146,
        189,
        205,
        241,
        220,
        51,
        125,
        155,
        221,
        272,
        40,
        229,
        1,
        141,
        283,
        2,
        188,
        95,
        259,
        18,
        48,
        158,
        123,
        137,
        109,
        92,
        35,
        44,
        187,
        280,
        258,
        212,
        218,
        126,
        70,
        195,
        227,
        122,
        190,
        157,
        232,
        63,
        3,
        207,
        169,
        115,
        36,
        28,
        178,
        13,
        292,
        5,
        224,
        16,
        242,
        114,
        52,
        285,
        101,
        254,
        246,
        135,
        202,
        57,
        33,
        82,
        27,
        199,
        177,
        128,
        299,
        290,
        111,
        41,
        119,
        235,
        261,
        186,
        176,
        270,
        231,
        139,
        163,
        168,
        46,
        150,
        266,
        120,
        295,
        59,
        91,
        263,
        174,
        99,
        203,
        88,
        277,
        154,
        24,
        250,
        237,
        96,
        153,
        67,
        249,
        268,
        273,
        164,
        222,
        211,
        297,
        129
    ],
    "Global Optimum": 0,
    "Algorithm": "Genetic algorithm",
    "Parameters": {
        "population": 30,
        "offspring": 30,
        "mutation probability": 0.0033333333333333335,
        "crossover probability": 0.9
    },
    "Fitness": 241711,
    "Solution": [
        87,
        97,
        113,
        22,
        143,
        183,
        45,
        217,
        89,
        294,
        288,
        138,
        4,
        112,
        90,
        181,
        71,
        85,
        104,
        136,
        149,
        275,
        17,
        204,
        107,
        106,
        210,
        19,
        78,
        6,
        8,
        291,
        64,
        151,
        281,
        255,
        214,
        192,
        279,
        274,
        84,
        144,
        134,
        182,
        108,
        133,
        37,
        208,
        257,
        75,
        293,
        172,
        69,
        209,
        30,
        264,
        117,
        103,
        105,
        116,
        54,
        206,
        284,
        32,
        56,
        296,
        215,
        121,
        9,
        289,
        244,
        142,
        7,
        167,
        223,
        247,
        79,
        12,
        239,
        160,
        20,
        219,
        21,
        29,
        179,
        193,
        287,
        251,
        73,
        245,
        118,
        31,
        26,
        161,
        185,
        145,
        276,
        233,
        147,
        49,
        269,
        132,
        55,
        265,
        175,
        228,
        93,
        256,
        25,
        243,
        252,
        298,
        131,
        166,
        213,
        225,
        271,
        159,
        74,
        61,
        226,
        100,
        234,
        230,
        60,
        198,
        81,
        76,
        140,
        216,
        194,
        201,
        262,
        162,
        23,
        253,
        238,
        267,
        152,
        10,
        86,
        200,
        165,
        196,
        130,
        80,
        77,
        39,
        11,
        148,
        286,
        65,
        47,
        83,
        0,
        282,
        173,
        171,
        50,
        43,
        110,
        66,
        38,
        42,
        72,
        58,
        236,
        102,
        170,
        94,
        260,
        240,
        127,
        197,
        14,
        34,
        184,
        156,
        278,
        53,
        68,
        98,
        248,
        191,
        62,
        15,
        180,
        124,
        146,
        189,
        205,
        241,
        220,
        51,
        125,
        155,
        221,
        272,
        40,
        229,
        1,
        141,
        283,
        2,
        188,
        95,
        259,
        18,
        48,
        158,
        123,
        137,
        109,
        92,
        35,
        44,
        187,
        280,
        258,
        212,
        218,
        126,
        70,
        195,
        227,
        122,
        190,
        157,
        232,
        63,
        3,
        207,
        169,
        115,
        36,
        28,
        178,
        13,
        292,
        5,
        224,
        16,
        242,
        114,
        52,
        285,
        101,
        254,
        246,
        135,
        202,
        57,
        33,
        82,
        27,
        199,
        177,
        128,
        299,
        290,
        111,
        41,
        119,
        235,
        261,
        186,
        176,
        270,
        231,
        139,
        163,
        168,
        46,
        150,
        266,
        120,
        295,
        59,
        91,
        263,
        174,
        99,
        203,
        88,
        277,
        154,
        24,
        250,
        237,
        96,
        153,
        67,
        249,
        268,
        273,
        164,
        222,
        211,
        297,
        129
    ],
    "Nb of functions evaluations": 400020,
    "Computational time in seconds": 746.8846402168274,
    "Stopping criterion in evaluations": 400000
}